c instance by G2
c solution = 101011000110001
c Known solution cost is 56
p cnf 15 15
w 4 0 0 6 4 1 4 4 1 5 7 2 7 6 5
1 5 -8 0
-1 -15 -8 0
14 4 5 0
4 8 10 0
-14 7 -5 0
-6 3 12 0
6 -3 9 0
10 11 -13 0
11 4 10 0
-14 8 -15 0
-2 12 5 0
15 -5 -10 0
9 -4 14 0
13 -11 -12 0
6 -11 12 0
